(set-logic QF_S)
(set-option :strings-exp true)
(set-option :produce-models true)
(declare-fun sigmaStar_2 () String)
(declare-fun epsilon () String)
(declare-fun x_3 () String)
(declare-fun replacearg () String)
(declare-fun replacesub () String)
(declare-fun regexstr () String)
(assert (= epsilon ""))
(assert (= x_3 (str.replace epsilon "\x68\x74\x74\x70\x3a\x2f\x2f" "\x68\x74\x74\x70\x73\x3a\x2f\x2f")))
(assert (= replacearg "\x68\x74\x74\x70\x3a\x2f\x2f"))
(assert (= replacesub "\x68\x74\x74\x70\x73\x3a\x2f\x2f"))
(assert (str.in.re x_3 (re.++ (re.* re.allchar) (re.++ (str.to.re "\x2f\x65\x76\x69\x6c") (re.* re.allchar)))))
(assert (= regexstr "\x2f\x65\x76\x69\x6c"))
(check-sat)
(get-model)
